# 2456
param k := 6;
param n := 60;
param s := 1;
set E :=  (0,10) (0,44) (0,57) (1,42) (1,50) (2,21) (2,54) (3,16) (4,12) (4,33) (4,38) (4,45) (5,25) (6,11) (7,11) (7,25) (7,40) (7,55) (8,9) (9,29) (9,55) (10,47) (12,21) (12,24) (12,26) (13,50) (14,18) (14,23) (14,38) (14,46) (14,53) (15,28) (16,25) (16,48) (17,29) (18,20) (18,41) (19,32) (21,22) (21,36) (22,27) (22,39) (23,57) (24,37) (25,34) (27,32) (27,51) (28,51) (29,35) (29,54) (29,59) (30,52) (30,54) (31,40) (34,56) (35,50) (39,49) (39,59) (43,46) (44,45) (45,46) (45,50) (48,55) (50,58) (56,58);